data/CVRPLIB/Vrp-Set-XML100/instances/XML100_3214_08.vrp
NAME : XML100_3214_08
COMMENT : Generated by Queiroga, Sadykov, Uchoa, and Vidal (2021)
TYPE : CVRP
DIMENSION : 101
EDGE_WEIGHT_TYPE : EUC_2D
CAPACITY : 14
NODE_COORD_SECTION
1    0    0   
2    709  766 
3    104  441 
4    555  290 
5    197  24  
6    912  668 
7    188  384 
8    535  173 
9    901  676 
10   646  712 
11   592  345 
12   652  778 
13   789  728 
14   761  727 
15   803  738 
16   13   375 
17   598  856 
18   450  479 
19   40   352 
20   366  374 
21   786  643 
22   515  288 
23   765  853 
24   800  780 
25   809  605 
26   726  712 
27   691  234 
28   7    425 
29   456  37  
30   195  248 
31   83   401 
32   684  626 
33   562  139 
34   629  749 
35   37   254 
36   731  759 
37   770  703 
38   116  290 
39   408  378 
40   783  682 
41   355  85  
42   515  338 
43   666  624 
44   673  863 
45   211  48  
46   419  299 
47   131  158 
48   809  682 
49   161  28  
50   121  514 
51   629  249 
52   632  763 
53   234  44  
54   697  775 
55   603  579 
56   724  781 
57   205  2   
58   307  31  
59   818  782 
60   27   86  
61   922  916 
62   57   100 
63   822  666 
64   222  438 
65   734  761 
66   159  157 
67   242  76  
68   729  760 
69   523  256 
70   213  112 
71   554  254 
72   35   236 
73   514  267 
74   722  561 
75   596  384 
76   39   386 
77   857  585 
78   851  767 
79   674  294 
80   35   392 
81   945  627 
82   870  731 
83   676  692 
84   417  153 
85   610  252 
86   791  779 
87   33   366 
88   823  745 
89   505  731 
90   712  295 
91   899  698 
92   743  777 
93   863  659 
94   411  377 
95   13   379 
96   474  267 
97   23   403 
98   470  69  
99   676  716 
100  933  672 
101  665  649 
DEMAND_SECTION
1    0   
2    1   
3    1   
4    1   
5    1   
6    1   
7    1   
8    1   
9    1   
10   1   
11   1   
12   1   
13   1   
14   1   
15   1   
16   1   
17   1   
18   1   
19   1   
20   1   
21   1   
22   1   
23   1   
24   1   
25   1   
26   1   
27   1   
28   1   
29   1   
30   1   
31   1   
32   1   
33   1   
34   1   
35   1   
36   1   
37   1   
38   1   
39   1   
40   1   
41   1   
42   1   
43   1   
44   1   
45   1   
46   1   
47   1   
48   1   
49   1   
50   1   
51   1   
52   1   
53   1   
54   1   
55   1   
56   1   
57   1   
58   1   
59   1   
60   1   
61   1   
62   1   
63   1   
64   1   
65   1   
66   1   
67   1   
68   1   
69   1   
70   1   
71   1   
72   1   
73   1   
74   1   
75   1   
76   1   
77   1   
78   1   
79   1   
80   1   
81   1   
82   1   
83   1   
84   1   
85   1   
86   1   
87   1   
88   1   
89   1   
90   1   
91   1   
92   1   
93   1   
94   1   
95   1   
96   1   
97   1   
98   1   
99   1   
100  1   
101  1   
DEPOT_SECTION
1
-1
EOF
