data/CVRPLIB/Vrp-Set-XML100/solutions/XML100_3214_08.sol
Route #1: 37 30 2 49 27 96 79 75 94 15 86 18 34 71
Route #2: 33 51 11 53 1 55 91 64 35 67 98 9 17 19
Route #3: 61 59
Route #4: 3 10 76 80 99 5 8 90 81 77 87 14 12 36
Route #5: 46 65 69 66 40 83 97 28 57 52 44 4 56 48
Route #6: 29 45 95 21 72 68 70 84 50 78 89 26 32 7
Route #7: 38 93 54 42 31 20 39 47 62 92 24 73 74 41
Route #8: 100 82 25 13 85 23 58 60 22 43 16 88 63 6
Cost 13995
